nbV = 21;
nbE = 28;
map = [|true,false,false,false,false,false,false,false,false,false,false,false,false,false,false,false,false,false,false,false,false,false,false,false,false,false,false,false
|false,true,true,false,false,false,false,false,false,false,false,false,false,false,false,false,false,false,false,false,false,false,false,false,false,false,false,false
|false,false,false,false,false,false,false,false,false,false,false,false,false,false,false,false,true,true,true,false,false,false,false,false,false,false,false,false
|false,false,false,true,true,false,false,false,false,false,false,false,false,false,false,false,false,false,false,false,false,false,false,false,false,false,false,false
|false,false,false,false,false,false,false,false,false,false,false,false,false,false,false,false,false,false,false,false,false,false,false,false,true,true,false,false
|false,false,false,false,false,false,false,false,false,false,false,true,true,false,false,false,false,false,false,false,false,false,false,false,false,false,false,false
|false,false,false,false,false,false,false,false,false,false,false,false,false,false,false,false,false,false,false,false,false,true,true,true,false,false,false,false
|false,false,false,false,false,false,false,false,false,false,true,false,false,false,false,false,false,false,false,false,false,false,false,false,false,false,false,false
|false,false,false,false,false,false,false,false,false,false,false,false,false,false,false,false,false,true,false,true,false,false,false,true,false,false,false,false
|false,false,false,false,false,false,false,false,false,false,false,false,false,false,false,false,false,false,false,false,false,false,false,false,false,false,false,true
|true,true,false,false,true,false,false,false,false,false,false,false,false,false,false,false,false,false,false,false,false,false,false,false,false,false,false,false
|false,false,true,false,false,true,true,false,false,false,false,false,true,false,false,false,false,false,false,false,false,false,false,false,false,false,false,false
|false,false,false,false,false,true,false,true,true,false,false,false,false,false,false,false,false,false,false,false,false,false,false,false,false,false,false,false
|false,false,false,true,false,false,false,true,false,true,false,false,false,false,false,false,false,false,false,false,false,false,false,false,false,false,false,false
|false,false,false,false,false,false,false,false,false,true,true,false,false,false,false,false,false,false,true,false,false,false,false,false,false,false,false,false
|false,false,false,false,false,false,true,false,false,false,false,true,false,true,true,false,false,false,false,false,false,false,false,false,false,false,false,false
|false,false,false,false,false,false,false,false,true,false,false,false,false,true,false,true,false,false,false,false,false,false,false,false,false,false,false,false
|false,false,false,false,false,false,false,false,false,false,false,false,false,false,false,false,true,false,false,true,true,false,false,false,false,false,false,false
|false,false,false,false,false,false,false,false,false,false,false,false,false,false,true,true,false,false,false,false,false,false,true,false,false,true,false,false
|false,false,false,false,false,false,false,false,false,false,false,false,false,false,false,false,false,false,false,false,false,true,false,false,true,false,true,false
|false,false,false,false,false,false,false,false,false,false,false,false,false,false,false,false,false,false,false,false,true,false,false,false,false,false,true,true
|];
endnodes = [|true,false,false,false,false,false,false,false,false,false,true,false,false,false,false,false,false,false,false,false,false
|false,true,false,false,false,false,false,false,false,false,true,false,false,false,false,false,false,false,false,false,false
|false,true,false,false,false,false,false,false,false,false,false,true,false,false,false,false,false,false,false,false,false
|false,false,false,true,false,false,false,false,false,false,false,false,false,true,false,false,false,false,false,false,false
|false,false,false,true,false,false,false,false,false,false,true,false,false,false,false,false,false,false,false,false,false
|false,false,false,false,false,false,false,false,false,false,false,true,true,false,false,false,false,false,false,false,false
|false,false,false,false,false,false,false,false,false,false,false,true,false,false,false,true,false,false,false,false,false
|false,false,false,false,false,false,false,false,false,false,false,false,true,true,false,false,false,false,false,false,false
|false,false,false,false,false,false,false,false,false,false,false,false,true,false,false,false,true,false,false,false,false
|false,false,false,false,false,false,false,false,false,false,false,false,false,true,true,false,false,false,false,false,false
|false,false,false,false,false,false,false,true,false,false,false,false,false,false,true,false,false,false,false,false,false
|false,false,false,false,false,true,false,false,false,false,false,false,false,false,false,true,false,false,false,false,false
|false,false,false,false,false,true,false,false,false,false,false,true,false,false,false,false,false,false,false,false,false
|false,false,false,false,false,false,false,false,false,false,false,false,false,false,false,true,true,false,false,false,false
|false,false,false,false,false,false,false,false,false,false,false,false,false,false,false,true,false,false,true,false,false
|false,false,false,false,false,false,false,false,false,false,false,false,false,false,false,false,true,false,true,false,false
|false,false,true,false,false,false,false,false,false,false,false,false,false,false,false,false,false,true,false,false,false
|false,false,true,false,false,false,false,false,true,false,false,false,false,false,false,false,false,false,false,false,false
|false,false,true,false,false,false,false,false,false,false,false,false,false,false,true,false,false,false,false,false,false
|false,false,false,false,false,false,false,false,true,false,false,false,false,false,false,false,false,true,false,false,false
|false,false,false,false,false,false,false,false,false,false,false,false,false,false,false,false,false,true,false,false,true
|false,false,false,false,false,false,true,false,false,false,false,false,false,false,false,false,false,false,false,true,false
|false,false,false,false,false,false,true,false,false,false,false,false,false,false,false,false,false,false,true,false,false
|false,false,false,false,false,false,true,false,true,false,false,false,false,false,false,false,false,false,false,false,false
|false,false,false,false,true,false,false,false,false,false,false,false,false,false,false,false,false,false,false,true,false
|false,false,false,false,true,false,false,false,false,false,false,false,false,false,false,false,false,false,true,false,false
|false,false,false,false,false,false,false,false,false,false,false,false,false,false,false,false,false,false,false,true,true
|false,false,false,false,false,false,false,false,false,true,false,false,false,false,false,false,false,false,false,false,true
|];
terminals = {1,2,3,4,5,6,7,8,9,10};
link_cost = [413465,2354247,5123726,4641462,969230,110746,324546,2730467,324546,1792517,22484,1255554,1580100,110746,2321387,2210641,431823,1256823,1526309,825000,2390803,1332596,3408836,866203,3408836,1332596,1595300,1490005];
